NAME : OMNETRUN
COMMENT : 524.61
TYPE : CVRP
DIMENSION : 21
EDGE_WEIGHT_TYPE : EUC_2D
CAPACITY : 21
NODE_COORD_SECTION
1 0.107093 -0.77924
2 25.8126 -418.888
3 30.1981 -1035.58
4 238.746 -2244.53
5 74.5291 -3123.83
6 20.549 -3558.53
7 373.106 -212.428
8 468.29 -1450.55
9 384.623 -3632.38
10 392.402 -4341.47
11 257.598 -5146.09
12 480.814 -5704.51
13 583.215 -969.495
14 510.815 -2017.05
15 532.728 -2832.57
16 672.166 -3379.8
17 671.372 -4593.78
18 800.818 -191.017
19 754.387 -615.734
20 993.284 -1615.16
21 873.875 -1955.23
DEMAND_SECTION
1 0
2 1
3 1
4 1
5 1
6 1
7 1
8 1
9 1
10 1
11 1
12 1
13 1
14 1
15 1
16 1
17 1
18 1
19 1
20 1
21 1
DEPOT_SECTION
1
-1
EOF
